
Log started (V12.10.0.0) Sun Apr  4 07:51:31 2021


Problem 'asset.lp' read.
Read time = 0.00 sec. (0.18 ticks)
New value for default parallel thread count: 1
New value for time limit in seconds: 300
Version identifier: 12.10.0.0 | 2019-11-26 | 843d4de
CPXPARAM_Threads                                 1
CPXPARAM_TimeLimit                               300
Found incumbent of value -0.891228 after 0.00 sec. (0.08 ticks)
Tried aggregator 3 times.
MIP Presolve eliminated 505 rows and 254 columns.
MIP Presolve modified 1666 coefficients.
Aggregator did 475 substitutions.
Reduced MIP has 719 rows, 786 columns, and 3232 nonzeros.
Reduced MIP has 645 binaries, 106 generals, 0 SOSs, and 0 indicators.
Presolve time = 0.01 sec. (8.02 ticks)
Probing fixed 40 vars, tightened 22 bounds.
Probing time = 0.00 sec. (2.42 ticks)
Cover probing fixed 0 vars, tightened 35 bounds.
Tried aggregator 1 time.
MIP Presolve eliminated 94 rows and 90 columns.
MIP Presolve modified 282 coefficients.
Reduced MIP has 625 rows, 696 columns, and 2701 nonzeros.
Reduced MIP has 577 binaries, 84 generals, 0 SOSs, and 0 indicators.
Presolve time = 0.00 sec. (2.62 ticks)
Probing time = 0.00 sec. (1.87 ticks)
Tried aggregator 1 time.
Detecting symmetries...
MIP Presolve modified 20 coefficients.
Reduced MIP has 625 rows, 696 columns, and 2701 nonzeros.
Reduced MIP has 577 binaries, 84 generals, 0 SOSs, and 0 indicators.
Presolve time = 0.00 sec. (1.93 ticks)
Probing time = 0.00 sec. (1.88 ticks)
Clique table members: 1798.
MIP emphasis: balance optimality and feasibility.
MIP search method: dynamic search.
Parallel mode: none, using 1 thread.
Root relaxation solution time = 0.01 sec. (7.25 ticks)

        Nodes                                         Cuts/
   Node  Left     Objective  IInf  Best Integer    Best Bound    ItCnt     Gap

*     0+    0                           -0.8912      353.8543              --- 
      0     0      312.4229   164       -0.8912      312.4229      475     --- 
      0     0      308.8174   164       -0.8912     Cuts: 256      947     --- 
      0     0      304.0742   164       -0.8912     Cuts: 238     1278     --- 
      0     0      303.0574   164       -0.8912     Cuts: 188     1419     --- 
      0     0      301.6825   164       -0.8912     Cuts: 134     1592     --- 
      0     0      301.3341   164       -0.8912     Cuts: 134     1728     --- 
Detecting symmetries...
      0     0      301.2185   164       -0.8912     Cuts: 174     1836     --- 
      0     0      300.9136   164       -0.8912     Cuts: 144     2028     --- 
      0     0      300.8531   164       -0.8912      Cuts: 93     2110     --- 
      0     0      300.3477   164       -0.8912      Cuts: 96     2234     --- 
      0     0      300.1692   164       -0.8912      Cuts: 95     2343     --- 
*     0+    0                          140.9276      300.1692           113.00%
      0     0        cutoff            140.9276      300.1692     2343  113.00%
      0     0      300.0533   164      140.9276      Cuts: 82     2483  112.91%
      0     0      299.9718   164      140.9276     Cuts: 104     2591  112.86%
      0     0      299.8404   164      140.9276      Cuts: 75     2727  112.76%
      0     0      299.6987   164      140.9276     Cuts: 103     2873  112.66%
      0     0      299.6654   164      140.9276      Cuts: 86     2960  112.64%
      0     0      299.6621   164      140.9276      Cuts: 93     3051  112.64%
*     0+    0                          140.9282      299.6621           112.63%
*     0+    0                          145.0857      299.6621           106.54%
*     0+    0                          153.2833      299.6621            95.50%
*     0+    0                          153.2841      299.6621            95.49%
      0     0        cutoff            153.2841      299.6621     3051   95.49%
Detecting symmetries...
      0     2      299.6621   210      153.2841      299.6621     3051   95.49%
Elapsed time = 0.39 sec. (403.32 ticks, tree = 0.01 MB, solutions = 5)
*    80+   80                          229.2598      299.6621            30.71%
    117   111      297.5484   166      229.2598      299.5739     8585   30.67%
*   180+  168                          229.2607      299.3045            30.55%
*   200+  153                          264.2926      299.3045            13.25%
*   205   154      integral     0      264.2927      299.3045    11158   13.25%
*   207   153      integral     0      264.2928      299.3045    11161   13.25%
    280   219      279.6353   152      264.2928      299.2563    13637   13.23%
    440   356      275.6479   139      264.2928      299.2158    19021   13.21%
    588   483      286.8642    89      264.2928      299.0423    24350   13.15%
    762   637      270.7937    93      264.2928      298.9752    29994   13.12%
    900   754      294.7012   121      264.2928      298.6759    35836   13.01%

Performing restart 1

Repeating presolve.
Tried aggregator 1 time.
MIP Presolve eliminated 5 rows and 0 columns.
MIP Presolve modified 424 coefficients.
Reduced MIP has 620 rows, 696 columns, and 2394 nonzeros.
Reduced MIP has 577 binaries, 84 generals, 0 SOSs, and 0 indicators.
Presolve time = 0.00 sec. (2.40 ticks)
Tried aggregator 1 time.
Reduced MIP has 620 rows, 696 columns, and 2394 nonzeros.
Reduced MIP has 577 binaries, 84 generals, 0 SOSs, and 0 indicators.
Presolve time = 0.00 sec. (1.85 ticks)
Represolve time = 0.02 sec. (12.74 ticks)
   1020     0      299.3650   185      264.2928     Cuts: 149    41893   12.91%
   1020     0      298.4695   185      264.2928     Cuts: 149    42447   12.91%
   1020     0      296.9829   185      264.2928     Cuts: 187    42708   12.37%
   1020     0      296.3756   185      264.2928     Cuts: 148    42962   12.14%
*  1020+    0                          264.2929      296.3756            12.14%
   1020     0        cutoff            264.2929      296.3756    42962   12.14%
   1020     0      296.2188   185      264.2929     Cuts: 135    43139   12.08%
   1020     0      295.3934   185      264.2929     Cuts: 125    43295   11.77%
   1020     0      295.2375   185      264.2929     Cuts: 159    43425   11.71%
   1020     0      295.0383   185      264.2929     Cuts: 125    43611   11.63%
   1020     0      294.9133   185      264.2929      Cuts: 98    43836   11.59%
   1020     0      294.7560   185      264.2929      Cuts: 66    43949   11.53%
   1020     0      294.7152   185      264.2929      Cuts: 60    44093   11.51%
   1020     0      294.6095   185      264.2929      Cuts: 51    44219   11.47%
*  1020+    0                          264.2935      294.6095            11.47%
*  1020+    0                          264.2935      294.6095            11.47%
   1020     0        cutoff            264.2935      294.6095    44219   11.47%
   1020     0      294.5912   185      264.2935      Cuts: 78    44311   11.46%
   1020     0      294.5646   185      264.2935      Cuts: 46    44428   11.45%
   1020     0      294.4952   185      264.2935      Cuts: 38    44555   11.43%
   1020     0      294.4681   185      264.2935      Cuts: 33    44641   11.42%
   1020     0      294.4607   185      264.2935      Cuts: 47    44736   11.41%
   1020     0      294.4450   185      264.2935      Cuts: 24    44870   11.41%
   1020     0      294.4186   185      264.2935      Cuts: 41    44972   11.40%
   1020     0      294.3950   185      264.2935      Cuts: 77    45090   11.39%
   1020     2      294.3950   202      264.2935      294.3947    45090   11.39%
   1021     3      294.3843   204      264.2935      294.3839    45224   11.39%
   1026     8      293.9909   163      264.2935      294.0744    46545   11.27%
   1074    50      278.5682   122      264.2935      294.0147    53117   11.25%
Elapsed time = 5.45 sec. (6052.53 ticks, tree = 0.10 MB, solutions = 13)
*  1150+  111                          265.3364      293.1562            10.48%
   1236   188      290.4526   187      265.3364      292.5110    62745   10.24%
*  1250+  199                          265.3364      292.5110            10.24%
*  1260+  209                          265.3365      292.5110            10.24%
*  1360+  287                          265.3379      292.1453            10.10%
   1443   347      288.2551   127      265.3379      291.2828    74838    9.78%
*  1460+  281                          271.5677      291.2828             7.26%
*  1470+  291                          271.5678      291.2828             7.26%
   1558   348      281.4705   123      271.5678      290.7874    86420    7.08%
*  1570+  321                          273.5769      290.7846             6.29%
   1660   384      281.2978   104      273.5769      290.2206    96558    6.08%
   1799   473      285.7373   161      273.5769      289.6910   107682    5.89%
   1940   574      281.8714    93      273.5769      289.2916   118338    5.74%
   2061   640      286.5711   159      273.5769      288.8749   129795    5.59%
   2193   716        cutoff            273.5769      288.2550   143282    5.37%
*  2363   854      integral     0      273.5771      288.2525   149915    5.36%
*  2463+  925                          273.5773      288.2492             5.36%
   2479   935      284.1198   141      273.5773      287.9827   155384    5.27%
   2637  1024      274.5421    97      273.5773      287.6582   169740    5.15%
Elapsed time = 13.41 sec. (15690.33 ticks, tree = 0.65 MB, solutions = 22)
   2767  1068      279.8280   147      273.5773      287.4112   182621    5.06%
   2898  1132      279.7164   115      273.5773      287.1556   195260    4.96%
   3003  1155      282.7179   176      273.5773      286.7967   207906    4.83%
   3148  1189      286.0253   149      273.5773      286.4625   222442    4.71%
   3275  1214        cutoff            273.5773      286.0617   237392    4.56%
   3412  1265      277.2187    87      273.5773      285.8051   253033    4.47%
   3547  1280      284.0308   145      273.5773      285.2142   266238    4.25%
   3665  1284      281.1135   168      273.5773      284.9330   279764    4.15%
   3792  1291      274.2262   106      273.5773      284.6948   294382    4.06%
   3913  1292      275.1407   109      273.5773      284.3117   308744    3.92%
Elapsed time = 21.31 sec. (25338.95 ticks, tree = 0.87 MB, solutions = 22)
   4083  1283        cutoff            273.5773      283.9661   324076    3.80%
   4238  1284      276.7750   106      273.5773      283.6549   341061    3.68%
   4393  1253      280.3005   114      273.5773      283.2487   357445    3.54%
   4574  1216      275.6811   119      273.5773      282.8306   373668    3.38%
   4731  1186      274.9005    81      273.5773      282.5462   388465    3.28%
   4861  1153      275.6291   155      273.5773      282.3266   404020    3.20%
   5033  1135      278.0808    76      273.5773      281.9901   418830    3.08%
   5174  1117      278.7120   130      273.5773      281.8123   433663    3.01%
   5381  1067      274.4019    70      273.5773      281.4286   449839    2.87%
   5577   990        cutoff            273.5773      280.8985   465920    2.68%
Elapsed time = 29.19 sec. (34930.42 ticks, tree = 0.72 MB, solutions = 22)
   5897  1068      277.5569    85      273.5773      280.5643   481199    2.55%
*  6020+  969                          273.5778      280.2441             2.44%
   6130   925      279.9299    84      273.5778      279.9355   499478    2.32%
   6388   826        cutoff            273.5778      279.4855   517105    2.16%
   6651   670        cutoff            273.5778      278.5678   535593    1.82%
   6874   548        cutoff            273.5778      277.5445   551333    1.45%

GUB cover cuts applied:  14
Clique cuts applied:  108
Cover cuts applied:  10
Implied bound cuts applied:  52
Flow cuts applied:  14
Mixed integer rounding cuts applied:  128
Zero-half cuts applied:  69
Lift and project cuts applied:  32
Gomory fractional cuts applied:  17

Root node processing (before b&c):
  Real time             =    0.39 sec. (403.58 ticks)
Sequential b&c:
  Real time             =   33.54 sec. (40196.13 ticks)
                          ------------
Total (root+branch&cut) =   33.93 sec. (40599.71 ticks)

Solution pool: 24 solutions saved.

MIP - Integer optimal, tolerance (0.0001/1e-06):  Objective =  2.7357784593e+02
Current MIP best bound =  2.7358947391e+02 (gap = 0.011628, 0.00%)
Solution time =   33.93 sec.  Iterations = 565754  Nodes = 7224 (317)
Deterministic time = 40599.71 ticks  (1196.69 ticks/sec)


Incumbent solution
Variable Name           Solution Value
F                           305.000000
f1                            0.932154
f2                           30.490000
y64                           1.000000
y70                           1.000000
y89                           1.000000
y90                           1.000000
y251                          1.000000
y254                          1.000000
y79                           1.000000
y206                          1.000000
y84                           1.000000
y114                          1.000000
y134                          1.000000
y7                            1.000000
y263                          1.000000
y207                          1.000000
y129                          1.000000
y10                           1.000000
y205                          1.000000
y22                           1.000000
y228                          1.000000
y196                          1.000000
s16                           6.000000
s37                           6.000000
s58                           6.000000
s59                           6.000000
s60                           6.000000
s64                           6.358719
s70                           6.780197
s89                           6.782604
s90                           6.446433
s100                          6.000000
s111                          6.000000
s116                          6.000000
s126                          6.000000
s131                          6.000000
s148                          6.000000
s156                          6.000000
s215                          6.000000
s241                          6.000000
s251                          6.225441
s254                          6.543065
s259                          6.000000
s261                          6.000000
s262                          6.000000
s268                          6.000000
s79                           6.529681
s272                          6.130000
s206                          6.938732
s226                          6.470000
s84                           7.476852
s114                          7.544676
s134                          7.164144
s77                           6.580000
s7                            6.714805
s230                          6.690000
s187                          6.730000
s263                          7.783435
s207                          7.681705
s129                          7.814805
s10                           7.531560
s66                           7.100000
s205                          7.580837
s172                          7.120000
s22                           7.836171
s228                          8.081896
s196                          8.131571
x181x79x1                     1.000000
x113x90x1                     1.000000
x135x251x1                    1.000000
x274x70x1                     1.000000
x71x10x1                      2.000000
x153x205x1                    2.000000
x186x79x1                     1.000000
x188x251x1                    1.000000
x162x89x2                     1.000000
x135x64x2                     1.000000
x193x206x2                    2.000000
x274x89x2                     1.000000
x53x84x2                      1.000000
x53x114x2                     1.000000
x83x134x2                     1.000000
x186x254x2                    1.000000
x181x254x3                    1.000000
x260x7x3                      2.000000
x113x90x3                     1.000000
x162x70x3                     1.000000
x83x134x3                     1.000000
x188x64x3                     1.000000
x64x84x2                      1.000000
x64x263x3                     1.000000
x70x228x1                     1.000000
x70x196x3                     1.000000
x89x0x2                       1.000000
x89x196x2                     1.000000
x90x228x1                     1.000000
x90x22x3                      1.000000
x251x114x1                    1.000000
x251x129x1                    1.000000
x254x22x2                     1.000000
x254x263x3                    1.000000
x79x207x1                     2.000000
x206x0x2                      2.000000
x84x0x2                       2.000000
x114x0x1                      1.000000
x114x0x2                      1.000000
x134x0x2                      1.000000
x134x0x3                      1.000000
x7x0x3                        1.000000
x7x129x3                      1.000000
x263x0x3                      2.000000
x207x0x1                      2.000000
x129x0x1                      1.000000
x129x0x3                      1.000000
x10x0x1                       2.000000
x205x0x1                      2.000000
x22x0x2                       1.000000
x22x0x3                       1.000000
x228x0x1                      2.000000
x196x0x2                      1.000000
x196x0x3                      1.000000
s181                          4.839157
z181z254z3                    1.000000
z181z79z1                     1.000000
z181z7z3                      1.000000
z181z263z3                    1.000000
z181z207z1                    1.000000
z181z10z1                     1.000000
z181z66z1                     1.000000
z181z205z1                    1.000000
z181z172z3                    1.000000
z181z228z1                    1.000000
s260                          4.961400
z260z7z3                      1.000000
z260z172z3                    1.000000
s113                          5.094211
z113z90z1                     1.000000
z113z90z3                     1.000000
z113z7z3                      1.000000
z113z207z1                    1.000000
z113z10z1                     1.000000
z113z66z1                     1.000000
z113z205z1                    1.000000
z113z172z3                    1.000000
z113z228z1                    1.000000
s162                          5.381892
z162z70z3                     1.000000
z162z89z2                     1.000000
z162z172z3                    1.000000
s135                          4.918315
z135z64z2                     1.000000
z135z251z1                    1.000000
z135z226z1                    1.000000
z135z84z2                     1.000000
z135z77z2                     1.000000
z135z207z1                    1.000000
z135z10z1                     1.000000
z135z66z1                     1.000000
z135z205z1                    1.000000
z135z228z1                    1.000000
s193                          5.313364
z193z206z2                    1.000000
s274                          5.339141
z274z70z1                     1.000000
z274z89z2                     1.000000
z274z66z1                     1.000000
z274z205z1                    1.000000
z274z228z1                    1.000000
s53                           5.930928
z53z84z2                      1.000000
z53z114z2                     1.000000
s83                           5.540000
z83z134z2                     1.000000
z83z134z3                     1.000000
s71                           5.790000
z71z10z1                      1.000000
z71z205z1                     1.000000
s153                          5.950000
z153z205z1                    1.000000
s186                          4.740520
z186z254z2                    1.000000
z186z79z1                     1.000000
z186z84z2                     1.000000
z186z207z1                    1.000000
z186z10z1                     1.000000
z186z66z1                     1.000000
z186z205z1                    1.000000
z186z228z1                    1.000000
s188                          4.761180
z188z64z3                     1.000000
z188z251z1                    1.000000
z188z7z3                      1.000000
z188z263z3                    1.000000
z188z207z1                    1.000000
z188z10z1                     1.000000
z188z66z1                     1.000000
z188z205z1                    1.000000
z188z172z3                    1.000000
z188z228z1                    1.000000
z64z84z2                      1.000000
z64z263z3                     1.000000
z70z228z1                     1.000000
z70z196z3                     1.000000
z89z196z2                     1.000000
z90z22z3                      1.000000
z90z228z1                     1.000000
z251z114z1                    1.000000
z251z129z1                    1.000000
z254z263z3                    1.000000
z254z22z2                     1.000000
z79z207z1                     1.000000
z7z129z3                      1.000000
All other variables in the range 1-1519 are 0.
